p tw 376 740
1 113
1 249
1 250
2 118
2 119
2 177
3 111
3 112
3 178
3 179
4 143
4 144
4 201
4 202
5 36
5 112
5 124
5 125
5 183
5 184
5 281
6 166
6 224
6 225
7 256
7 257
7 347
7 348
8 119
8 272
8 316
8 333
9 288
9 289
9 325
9 326
9 359
9 360
10 172
10 173
10 230
10 231
11 163
11 164
11 220
11 221
12 123
12 124
12 182
12 183
12 280
12 281
12 344
12 345
12 369
12 370
13 145
13 146
13 204
13 205
14 278
14 279
14 343
14 344
15 107
15 108
15 134
15 135
15 192
15 193
15 242
15 243
15 257
15 258
16 174
16 270
16 271
16 310
17 168
17 169
17 227
17 228
18 159
18 160
18 216
18 217
19 151
19 152
19 210
20 161
20 162
20 218
20 219
21 155
21 156
21 211
21 212
22 148
22 206
22 253
22 254
23 116
23 117
23 175
23 176
24 120
24 178
24 335
24 336
25 122
25 123
25 181
25 182
26 173
26 174
26 232
26 233
27 302
27 303
27 354
27 355
28 115
28 116
28 373
28 374
29 82
29 87
29 315
30 135
30 136
30 193
30 194
31 212
31 213
31 292
31 293
31 338
31 339
32 127
32 128
32 186
32 187
32 282
32 283
32 318
32 319
32 348
32 349
33 278
33 330
33 342
33 343
34 100
34 235
34 236
35 53
35 101
35 159
35 215
35 216
35 236
35 237
35 249
36 69
36 110
36 111
36 245
36 345
36 346
37 330
37 331
37 342
38 164
38 165
38 223
38 224
38 298
38 299
38 350
38 351
39 126
39 127
39 185
39 186
40 109
40 110
40 244
40 245
40 314
40 331
40 332
40 364
40 365
41 137
41 138
41 261
41 262
41 286
41 287
42 269
42 270
42 370
43 128
43 129
43 187
43 188
44 144
44 202
44 203
45 165
45 166
45 222
45 223
46 106
46 107
46 362
46 363
47 150
47 151
47 209
47 210
47 260
47 261
48 167
48 226
48 227
49 130
49 131
49 190
49 191
50 105
50 147
50 148
50 205
50 206
50 240
50 251
50 252
51 274
51 275
51 320
51 321
51 337
51 338
52 157
52 158
52 213
52 214
52 265
52 266
52 296
52 297
53 215
53 371
54 305
54 306
54 321
54 322
54 355
54 356
55 276
55 277
55 341
56 108
56 109
56 149
56 150
56 207
56 208
56 243
56 244
56 259
56 260
57 99
57 100
57 142
57 143
57 200
57 201
57 234
57 235
57 266
57 267
58 138
58 139
58 195
58 196
58 262
58 263
58 353
58 354
58 374
58 375
59 90
59 277
59 329
60 106
60 163
60 220
60 241
60 255
60 362
61 154
61 155
61 211
62 101
62 102
62 203
63 89
63 310
63 311
63 376
64 126
64 185
64 241
64 242
64 256
65 297
65 327
65 328
65 340
65 341
66 306
66 307
66 323
66 324
66 357
66 358
67 156
67 157
67 264
67 265
67 294
67 295
68 131
68 132
68 189
68 190
69 315
69 332
69 346
70 104
70 105
70 239
70 240
70 271
71 290
71 316
71 317
71 333
71 334
72 272
72 273
72 317
72 318
72 334
72 335
73 133
73 134
73 191
73 192
74 146
74 147
74 372
74 373
75 103
75 104
75 238
75 239
75 268
75 269
76 117
76 118
76 176
76 177
76 254
76 255
77 149
77 207
77 258
77 259
77 290
77 291
78 129
78 130
78 188
78 189
78 283
78 284
78 349
78 350
79 307
79 308
79 324
79 325
79 358
79 359
80 300
80 301
80 319
80 320
80 351
80 352
81 309
81 328
81 329
81 361
82 298
82 315
83 99
83 141
83 142
83 234
83 289
84 301
84 302
84 367
84 368
85 170
85 171
85 263
85 264
85 304
85 305
85 322
85 323
86 308
86 309
86 326
86 327
86 360
86 361
87 98
87 311
87 312
88 169
88 170
88 229
88 230
89 198
89 199
89 356
89 357
89 376
90 246
90 247
91 152
91 153
91 248
92 113
92 114
92 175
93 102
93 103
93 160
93 161
93 217
93 218
93 237
93 238
93 247
93 248
93 250
93 251
93 365
93 366
93 371
93 372
94 140
94 141
94 196
94 197
95 136
95 137
95 194
95 195
95 285
95 286
95 352
95 353
96 167
96 168
96 228
96 229
97 120
97 121
97 179
97 180
97 275
97 276
97 339
97 340
98 313
98 314
99 100
101 102
102 103
103 104
104 105
106 107
107 108
108 109
109 110
110 111
111 112
113 114
114 115
115 116
116 117
117 118
118 119
120 121
121 180
122 123
122 181
123 124
124 125
125 184
126 127
127 128
128 129
129 130
130 131
131 132
132 133
133 134
134 135
135 136
136 137
137 138
138 139
139 140
140 141
141 142
142 143
143 144
145 146
145 204
146 147
147 148
149 150
150 151
151 152
152 153
153 154
154 155
155 156
156 157
157 158
158 214
159 160
160 161
161 162
162 219
163 164
164 165
165 166
167 168
168 169
169 170
170 171
171 172
172 173
173 174
175 176
176 177
178 179
179 180
181 182
182 183
183 184
185 186
186 187
187 188
188 189
189 190
190 191
191 192
192 193
193 194
194 195
195 196
196 197
197 198
198 199
199 200
200 201
201 202
202 203
204 205
205 206
207 208
208 209
209 210
211 212
212 213
213 214
215 216
216 217
217 218
218 219
220 221
221 222
222 223
223 224
224 225
225 226
226 227
227 228
228 229
229 230
230 231
231 232
232 233
233 246
234 235
235 236
236 237
237 238
238 239
239 240
241 242
242 243
243 244
244 245
246 247
247 248
249 250
250 251
251 252
252 253
253 254
254 255
256 257
257 258
258 259
259 260
260 261
261 262
262 263
263 264
264 265
265 266
266 267
267 268
268 269
269 270
270 271
272 273
273 274
274 275
275 276
276 277
278 279
279 280
280 281
282 283
282 347
283 284
284 285
285 286
286 287
287 288
288 289
290 291
291 292
292 293
293 294
294 295
295 296
296 297
298 299
299 300
300 301
301 302
302 303
303 304
304 305
305 306
306 307
307 308
308 309
310 311
311 312
312 313
313 314
316 317
317 318
318 319
319 320
320 321
321 322
322 323
323 324
324 325
325 326
326 327
327 328
328 329
330 331
331 332
333 334
334 335
335 336
336 337
337 338
338 339
339 340
340 341
342 343
343 344
344 345
345 346
347 348
348 349
349 350
350 351
351 352
352 353
353 354
354 355
355 356
356 357
357 358
358 359
359 360
360 361
362 363
363 364
364 365
365 366
366 367
367 368
368 369
369 370
371 372
372 373
373 374
374 375
375 376
